; aio-pika :: corpus-study/repo_src/aio-pika/aio_pika/robust_channel.py :: LOCK 'RobustChannel.__restore_lock' :: naive encoding (verdict: unsat)
; Generated by snf-pipeline (encoder.py) -- run with any
; SMT-LIB2-compliant solver, e.g. `z3 aio-pika__corpus-study_repo_src_aio-pika_aio_pika_robust_channel.py__RobustChannel.__restore_lock__naive.smt2`
; benchmark generated from python API
(set-info :status unknown)
(assert
 false)
(check-sat)
